39
1 0 1
2 0 5
2 1 4
3 0 4
3 1 8
3 2 2
4 0 4
4 1 1
4 2 3
4 3 8
5 0 2
5 1 5
5 2 8
5 3 5
5 4 2
6 0 8
6 1 6
6 2 3
6 3 4
6 4 4
6 5 3
7 0 2
7 1 6
7 2 8
7 3 8
7 4 2
7 5 8
7 6 3
8 0 5
8 1 1
8 2 1
8 3 7
8 4 7
8 5 6
8 6 4
8 7 8
9 0 3
9 1 4
9 2 7
9 3 2
9 4 1
9 5 5
9 6 8
9 7 2
9 8 1
10 0 1
10 1 2
10 2 5
10 3 1
10 4 6
10 5 8
10 6 5
10 7 1
10 8 4
10 9 3
11 0 7
11 1 5
11 2 3
11 3 6
11 4 7
11 5 8
11 6 6
11 7 3
11 8 8
11 9 2
11 10 2
12 0 3
12 1 6
12 2 7
12 3 4
12 4 6
12 5 5
12 6 2
12 7 1
12 8 7
12 9 4
12 10 6
12 11 2
13 0 6
13 1 1
13 2 1
13 3 4
13 4 1
13 5 1
13 6 1
13 7 5
13 8 1
13 9 4
13 10 4
13 11 1
13 12 2
14 0 7
14 1 1
14 2 3
14 3 1
14 4 4
14 5 8
14 6 6
14 7 2
14 8 3
14 9 6
14 10 4
14 11 8
14 12 3
14 13 2
15 0 2
15 1 5
15 2 2
15 3 1
15 4 8
15 5 7
15 6 2
15 7 5
15 8 1
15 9 2
15 10 2
15 11 1
15 12 2
15 13 7
15 14 4
16 0 7
16 1 6
16 2 1
16 3 4
16 4 6
16 5 3
16 6 3
16 7 4
16 8 5
16 9 4
16 10 8
16 11 1
16 12 8
16 13 5
16 14 6
16 15 4
17 0 1
17 1 8
17 2 8
17 3 4
17 4 6
17 5 2
17 6 6
17 7 3
17 8 6
17 9 2
17 10 3
17 11 7
17 12 4
17 13 6
17 14 8
17 15 4
17 16 3
18 0 6
18 1 4
18 2 4
18 3 3
18 4 7
18 5 1
18 6 2
18 7 8
18 8 6
18 9 1
18 10 3
18 11 6
18 12 1
18 13 3
18 14 5
18 15 8
18 16 5
18 17 5
19 0 5
19 1 3
19 2 6
19 3 3
19 4 1
19 5 7
19 6 8
19 7 4
19 8 1
19 9 2
19 10 5
19 11 1
19 12 4
19 13 2
19 14 6
19 15 1
19 16 4
19 17 3
19 18 6
20 0 3
20 1 6
20 2 6
20 3 1
20 4 1
20 5 4
20 6 2
20 7 8
20 8 2
20 9 3
20 10 2
20 11 6
20 12 4
20 13 8
20 14 5
20 15 3
20 16 1
20 17 5
20 18 2
20 19 4
21 0 3
21 1 4
21 2 5
21 3 7
21 4 1
21 5 2
21 6 4
21 7 5
21 8 1
21 9 3
21 10 6
21 11 7
21 12 8
21 13 6
21 14 1
21 15 3
21 16 6
21 17 3
21 18 8
21 19 8
21 20 7
22 0 1
22 1 5
22 2 1
22 3 5
22 4 7
22 5 1
22 6 2
22 7 1
22 8 1
22 9 5
22 10 8
22 11 6
22 12 7
22 13 3
22 14 3
22 15 1
22 16 8
22 17 8
22 18 2
22 19 6
22 20 5
22 21 4
23 0 5
23 1 6
23 2 7
23 3 3
23 4 3
23 5 8
23 6 7
23 7 2
23 8 4
23 9 1
23 10 5
23 11 6
23 12 2
23 13 3
23 14 5
23 15 4
23 16 3
23 17 7
23 18 8
23 19 8
23 20 7
23 21 7
23 22 8
24 0 1
24 1 4
24 2 3
24 3 2
24 4 1
24 5 4
24 6 1
24 7 8
24 8 7
24 9 7
24 10 6
24 11 8
24 12 8
24 13 7
24 14 7
24 15 2
24 16 4
24 17 4
24 18 2
24 19 8
24 20 3
24 21 6
24 22 6
24 23 3
25 0 7
25 1 3
25 2 3
25 3 8
25 4 7
25 5 2
25 6 4
25 7 8
25 8 7
25 9 2
25 10 8
25 11 7
25 12 2
25 13 2
25 14 7
25 15 5
25 16 4
25 17 2
25 18 8
25 19 8
25 20 2
25 21 2
25 22 7
25 23 2
25 24 6
26 0 3
26 1 5
26 2 3
26 3 5
26 4 7
26 5 6
26 6 6
26 7 2
26 8 1
26 9 6
26 10 2
26 11 6
26 12 1
26 13 7
26 14 4
26 15 5
26 16 8
26 17 7
26 18 7
26 19 2
26 20 6
26 21 7
26 22 6
26 23 6
26 24 5
26 25 7
27 0 5
27 1 6
27 2 8
27 3 2
27 4 1
27 5 7
27 6 6
27 7 7
27 8 5
27 9 1
27 10 7
27 11 8
27 12 4
27 13 8
27 14 6
27 15 5
27 16 2
27 17 3
27 18 7
27 19 5
27 20 4
27 21 1
27 22 2
27 23 1
27 24 2
27 25 3
27 26 4
28 0 1
28 1 7
28 2 7
28 3 1
28 4 1
28 5 4
28 6 4
28 7 7
28 8 7
28 9 3
28 10 2
28 11 6
28 12 4
28 13 6
28 14 4
28 15 4
28 16 2
28 17 2
28 18 2
28 19 8
28 20 1
28 21 8
28 22 4
28 23 1
28 24 4
28 25 2
28 26 8
28 27 7
29 0 7
29 1 2
29 2 1
29 3 7
29 4 4
29 5 8
29 6 4
29 7 8
29 8 6
29 9 7
29 10 4
29 11 5
29 12 7
29 13 5
29 14 1
29 15 5
29 16 5
29 17 4
29 18 4
29 19 8
29 20 8
29 21 5
29 22 2
29 23 3
29 24 7
29 25 3
29 26 5
29 27 3
29 28 7
30 0 1
30 1 6
30 2 8
30 3 4
30 4 7
30 5 5
30 6 5
30 7 2
30 8 5
30 9 4
30 10 6
30 11 8
30 12 5
30 13 2
30 14 1
30 15 2
30 16 6
30 17 4
30 18 5
30 19 5
30 20 8
30 21 7
30 22 7
30 23 8
30 24 2
30 25 5
30 26 5
30 27 3
30 28 4
30 29 5
31 0 7
31 1 4
31 2 6
31 3 4
31 4 6
31 5 3
31 6 6
31 7 8
31 8 7
31 9 7
31 10 5
31 11 3
31 12 8
31 13 3
31 14 4
31 15 7
31 16 6
31 17 5
31 18 6
31 19 4
31 20 7
31 21 4
31 22 3
31 23 1
31 24 5
31 25 1
31 26 2
31 27 2
31 28 4
31 29 6
31 30 4
32 0 4
32 1 2
32 2 7
32 3 3
32 4 5
32 5 6
32 6 7
32 7 6
32 8 3
32 9 8
32 10 8
32 11 7
32 12 5
32 13 7
32 14 2
32 15 8
32 16 6
32 17 1
32 18 3
32 19 1
32 20 8
32 21 6
32 22 4
32 23 3
32 24 8
32 25 1
32 26 3
32 27 5
32 28 8
32 29 4
32 30 7
32 31 3
33 0 2
33 1 1
33 2 6
33 3 4
33 4 3
33 5 2
33 6 1
33 7 5
33 8 8
33 9 7
33 10 1
33 11 3
33 12 7
33 13 7
33 14 6
33 15 6
33 16 8
33 17 1
33 18 5
33 19 6
33 20 2
33 21 8
33 22 7
33 23 4
33 24 2
33 25 3
33 26 1
33 27 7
33 28 6
33 29 7
33 30 3
33 31 6
33 32 2
34 0 4
34 1 1
34 2 1
34 3 8
34 4 4
34 5 6
34 6 4
34 7 8
34 8 8
34 9 6
34 10 3
34 11 7
34 12 5
34 13 1
34 14 1
34 15 5
34 16 6
34 17 6
34 18 7
34 19 3
34 20 4
34 21 1
34 22 1
34 23 7
34 24 3
34 25 7
34 26 6
34 27 4
34 28 7
34 29 2
34 30 2
34 31 4
34 32 3
34 33 3
35 0 1
35 1 2
35 2 7
35 3 3
35 4 1
35 5 3
35 6 5
35 7 1
35 8 6
35 9 6
35 10 7
35 11 3
35 12 7
35 13 8
35 14 6
35 15 6
35 16 5
35 17 5
35 18 3
35 19 7
35 20 6
35 21 8
35 22 1
35 23 8
35 24 7
35 25 6
35 26 7
35 27 2
35 28 8
35 29 2
35 30 3
35 31 6
35 32 8
35 33 7
35 34 1
36 0 8
36 1 1
36 2 7
36 3 8
36 4 2
36 5 4
36 6 3
36 7 6
36 8 7
36 9 5
36 10 3
36 11 1
36 12 6
36 13 3
36 14 8
36 15 5
36 16 2
36 17 6
36 18 4
36 19 6
36 20 8
36 21 5
36 22 8
36 23 2
36 24 7
36 25 4
36 26 2
36 27 4
36 28 8
36 29 5
36 30 7
36 31 4
36 32 1
36 33 1
36 34 6
36 35 1
37 0 5
37 1 8
37 2 4
37 3 7
37 4 5
37 5 2
37 6 3
37 7 4
37 8 4
37 9 2
37 10 5
37 11 2
37 12 4
37 13 6
37 14 1
37 15 5
37 16 8
37 17 7
37 18 2
37 19 1
37 20 4
37 21 7
37 22 8
37 23 1
37 24 1
37 25 3
37 26 1
37 27 6
37 28 3
37 29 1
37 30 6
37 31 8
37 32 5
37 33 6
37 34 1
37 35 8
37 36 2
38 0 1
38 1 8
38 2 1
38 3 1
38 4 6
38 5 5
38 6 7
38 7 7
38 8 4
38 9 3
38 10 5
38 11 7
38 12 4
38 13 8
38 14 5
38 15 2
38 16 5
38 17 4
38 18 4
38 19 3
38 20 8
38 21 3
38 22 7
38 23 7
38 24 8
38 25 1
38 26 7
38 27 5
38 28 3
38 29 4
38 30 3
38 31 5
38 32 7
38 33 4
38 34 1
38 35 5
38 36 4
38 37 4
